NAME: tsp30_23
COMMENT: 30-tsp problem (Padberg/Rinaldi)
TYPE: TSP
DIMENSION: 30
EDGE_WEIGHT_TYPE : EUC_2D
NODE_COORD_SECTION
1 31 11
2 29 35
3 37 31
4 6 5
5 24 12
6 17 37
7 28 39
8 16 36
9 11 32
10 16 16
11 27 16
12 31 21
13 5 34
14 3 40
15 39 15
16 18 28
17 40 2
18 12 20
19 34 33
20 13 31
21 2 34
22 29 19
23 29 35
24 9 17
25 26 17
26 21 5
27 29 31
28 27 10
29 12 26
30 22 3
